15214
101011101001001001001000110000
20 25 6 2 8 5 14 24 14 17 5 20 14 20 11 14 17 0 5 11 14 2 5 0 25 8 2 24 24 24 4 25 14 25 8 20 24 24 4 14 0 14 24 8 25 14 14 20 25 8 5 2 14 5 8 8 14 4 4 14 0 5 20 0 0 17 5 0 25 4 8 6 5 17 24 8 5 20 8 24 20 17 6 17 2 17 2 0 20 5 2 24 11 11 11 11 17 2 5 6 20 0 0 25 14 25 0 11 8 8 14 14 2 11 0 6 24 24 24 24 5 8 25 8 14 14 25 24 0 5 0 25 24 11 11 14 11 5 20 17 0 8 8 14 8 11 11 5 2 5 